data/solutions/recovery/degenerate/intermediate/flexible/degenerate_intermediate_instance23/12.sol
Elapsed time: 100.15
Upper bound: 227325164.0
Planning weighted value: 9.1461999713e+11
C[0]=227325164.0
C[1]=227297714.0
C[2]=226835537.0
C[3]=226728072.0
C[4]=226512379.0
C[5]=226430531.0
C[6]=226293726.0
C[7]=225416960.0
C[8]=225220687.0
C[9]=224491608.0
C[10]=219853522.0
C[11]=0.0
y[0]=0
y[1]=0
y[2]=7
y[3]=8
y[4]=2
y[5]=0
y[6]=6
y[7]=3
y[8]=0
y[9]=9
y[10]=10
y[11]=1
y[12]=0
y[13]=5
y[14]=4
y[15]=0
y[16]=9
y[17]=8
y[18]=5
y[19]=5
y[20]=3
y[21]=7
y[22]=6
y[23]=1
y[24]=8
y[25]=2
y[26]=8
y[27]=2
y[28]=9
y[29]=2
y[30]=9
y[31]=10
y[32]=9
y[33]=1
y[34]=5
y[35]=7
y[36]=4
y[37]=1
y[38]=10
y[39]=0
y[40]=9
y[41]=1
y[42]=8
y[43]=5
y[44]=0
y[45]=6
y[46]=5
y[47]=4
y[48]=0
y[49]=8
y[50]=4
y[51]=7
y[52]=7
y[53]=6
y[54]=7
y[55]=3
y[56]=9
y[57]=3
y[58]=10
y[59]=4
y[60]=10
y[61]=6
y[62]=10
y[63]=6
y[64]=2
y[65]=4
y[66]=2
y[67]=2
y[68]=3
y[69]=10
y[70]=4
y[71]=9
y[72]=8
y[73]=1
y[74]=4
y[75]=1
y[76]=2
y[77]=0
