data/solutions/recovery/degenerate/intermediate/flexible/degenerate_intermediate_instance23/12.log

Log started (V12.6.3.0) Sat Apr 21 14:48:38 2018

New value for default parallel thread count: 1

Problem '/tmp/tmpQVjhIn.pyomo.lp' read.
Read time = 0.01 sec. (0.84 ticks)

Problem name         : /tmp/tmpQVjhIn.pyomo.lp
Objective sense      : Minimize
Variables            :     950  [Nneg: 1,  Binary: 936,  General Integer: 13]
Objective nonzeros   :       1
Linear constraints   :     182  [Less: 90,  Equal: 92]
  Nonzeros           :   60259
  RHS nonzeros       :     157

Variables            : Min LB: 0.000000         Max UB: 1.000000       
Objective nonzeros   : Min   : 1.000000         Max   : 1.000000       
Linear constraints   :
  Nonzeros           : Min   : 1.000000         Max   : 6.145599e+07   
  RHS nonzeros       : Min   : 1.000000         Max   : 8.000000       
Tried aggregator 2 times.
MIP Presolve eliminated 81 rows and 140 columns.
Aggregator did 6 substitutions.
Reduced MIP has 95 rows, 804 columns, and 2237 nonzeros.
Reduced MIP has 792 binaries, 12 generals, 0 SOSs, and 0 indicators.
Presolve time = 0.01 sec. (10.91 ticks)
Found incumbent of value 7.7954514e+08 after 0.01 sec. (12.44 ticks)
Probing time = 0.00 sec. (1.59 ticks)
Tried aggregator 1 time.
Reduced MIP has 95 rows, 804 columns, and 2237 nonzeros.
Reduced MIP has 792 binaries, 12 generals, 0 SOSs, and 0 indicators.
Presolve time = 0.00 sec. (1.14 ticks)
Probing time = 0.00 sec. (1.59 ticks)
Clique table members: 72.
MIP emphasis: balance optimality and feasibility.
MIP search method: dynamic search.
Parallel mode: none, using 1 thread.
Root relaxation solution time = 0.00 sec. (1.59 ticks)

        Nodes                                         Cuts/
   Node  Left     Objective  IInf  Best Integer    Best Bound    ItCnt     Gap

*     0+    0                       7.79545e+08        0.0000           100.00%
      0     0   2.25673e+08    28   7.79545e+08   2.25673e+08      138   71.05%
      0     0   2.25673e+08    34   7.79545e+08      Fract: 3      152   71.05%
      0     0   2.25673e+08    22   7.79545e+08      Fract: 3      167   71.05%
*     0+    0                       2.88704e+08   2.25673e+08            21.83%
*     0+    0                       2.86775e+08   2.25673e+08            21.31%
*     0+    0                       2.85007e+08   2.25673e+08            20.82%
*     0+    0                       2.75160e+08   2.25673e+08            17.98%
*     0+    0                       2.67740e+08   2.25673e+08            15.71%
*     0+    0                       2.50594e+08   2.25673e+08             9.94%
*     0+    0                       2.43582e+08   2.25673e+08             7.35%
*     0+    0                       2.41458e+08   2.25673e+08             6.54%
*     0+    0                       2.41384e+08   2.25673e+08             6.51%
*     0+    0                       2.41047e+08   2.25673e+08             6.38%
      0     2   2.25673e+08    15   2.41047e+08   2.25673e+08      167    6.38%
Elapsed time = 0.06 sec. (65.91 ticks, tree = 0.01 MB, solutions = 11)
*    30+   24                       2.37687e+08   2.25673e+08             5.05%
*    37    29      integral     0   2.33571e+08   2.25673e+08      472    3.38%
*    39    29      integral     0   2.32147e+08   2.25673e+08      478    2.79%
*    40    28      integral     0   2.31728e+08   2.25673e+08      480    2.61%
*   996+  790                       2.30230e+08   2.25673e+08             1.98%
*   997+  786                       2.29850e+08   2.25673e+08             1.82%
    997   788   2.25673e+08    18   2.29850e+08   2.25673e+08     4298    1.82%
*   998+  786                       2.29752e+08   2.25673e+08             1.78%
*   998+  775                       2.28224e+08   2.25673e+08             1.12%
    998   777   2.25673e+08    16   2.28224e+08   2.25673e+08     4307    1.12%
    999   778   2.25673e+08    16   2.28224e+08   2.25673e+08     4695    1.12%
   1000   779   2.25673e+08    18   2.28224e+08   2.25673e+08     4702    1.12%
   1001   779   2.25673e+08    16   2.28224e+08   2.25673e+08     4705    1.12%
   1002   780   2.25673e+08    20   2.28224e+08   2.25673e+08     4714    1.12%
   1003   781   2.25673e+08    16   2.28224e+08   2.25673e+08     4716    1.12%
   1004   782   2.25673e+08    19   2.28224e+08   2.25673e+08     4722    1.12%
   1005   783   2.25673e+08    18   2.28224e+08   2.25673e+08     4726    1.12%
   1399   872   2.25932e+08    26   2.28224e+08   2.25673e+08     6161    1.12%
Elapsed time = 0.89 sec. (1064.69 ticks, tree = 0.45 MB, solutions = 19)
   3185  1790   2.27107e+08    18   2.28224e+08   2.25673e+08    10899    1.12%
   3186  1791   2.27107e+08    18   2.28224e+08   2.25673e+08    10900    1.12%
   3187  1792   2.27107e+08    18   2.28224e+08   2.25673e+08    10901    1.12%
   3188  1793   2.27107e+08    18   2.28224e+08   2.25673e+08    10902    1.12%
   3189  1793   2.27107e+08    18   2.28224e+08   2.25673e+08    10903    1.12%
   3190  1794   2.27107e+08    18   2.28224e+08   2.25673e+08    10903    1.12%
   3191  1794   2.27107e+08    17   2.28224e+08   2.25673e+08    10905    1.12%
   3192  1794   2.27107e+08    17   2.28224e+08   2.25673e+08    10906    1.12%
   3193  1794   2.27107e+08    17   2.28224e+08   2.25673e+08    10907    1.12%
   3194  1794   2.27107e+08    17   2.28224e+08   2.25673e+08    10908    1.12%
Elapsed time = 1.65 sec. (2021.18 ticks, tree = 1.02 MB, solutions = 19)
   7961  5992   2.25673e+08    16   2.28224e+08   2.25673e+08    24041    1.12%
   7962  5993   2.25673e+08    16   2.28224e+08   2.25673e+08    24042    1.12%
   7963  5994   2.25673e+08    16   2.28224e+08   2.25673e+08    24043    1.12%
   7964  5995   2.25673e+08    19   2.28224e+08   2.25673e+08    24050    1.12%
   7965  5996   2.25673e+08    19   2.28224e+08   2.25673e+08    24051    1.12%
   7966  5997   2.25673e+08    16   2.28224e+08   2.25673e+08    24055    1.12%
   7967  5998   2.25673e+08    18   2.28224e+08   2.25673e+08    24060    1.12%
   7968  5999   2.25673e+08    18   2.28224e+08   2.25673e+08    24062    1.12%
   7969  6000   2.25673e+08    18   2.28224e+08   2.25673e+08    24063    1.12%
   7970  6001   2.25673e+08    18   2.28224e+08   2.25673e+08    24064    1.12%
Elapsed time = 2.41 sec. (2976.11 ticks, tree = 3.67 MB, solutions = 19)
  13390 10472   2.25673e+08    20   2.28224e+08   2.25673e+08    44069    1.12%
  13391 10473   2.25673e+08    20   2.28224e+08   2.25673e+08    44071    1.12%
  13392 10474   2.25673e+08    20   2.28224e+08   2.25673e+08    44072    1.12%
  13393 10475   2.25673e+08    20   2.28224e+08   2.25673e+08    44074    1.12%
  13394 10476   2.25673e+08    20   2.28224e+08   2.25673e+08    44075    1.12%
  13395 10477   2.25673e+08    19   2.28224e+08   2.25673e+08    44076    1.12%
  13396 10478   2.25673e+08    24   2.28224e+08   2.25673e+08    44082    1.12%
  13397 10479   2.25673e+08    23   2.28224e+08   2.25673e+08    44084    1.12%
  13398 10480   2.25673e+08    25   2.28224e+08   2.25673e+08    44087    1.12%
  13399 10481   2.25673e+08    25   2.28224e+08   2.25673e+08    44089    1.12%
Elapsed time = 3.16 sec. (3930.82 ticks, tree = 6.57 MB, solutions = 19)
  18892 15571   2.25673e+08    21   2.28224e+08   2.25673e+08    67576    1.12%
  18893 15572   2.25673e+08    19   2.28224e+08   2.25673e+08    67583    1.12%
  18894 15573   2.25883e+08    29   2.28224e+08   2.25673e+08    67600    1.12%
  18895 15574   2.25883e+08    30   2.28224e+08   2.25673e+08    67603    1.12%
  18896 15575   2.25883e+08    29   2.28224e+08   2.25673e+08    67605    1.12%
  18897 15576   2.25883e+08    27   2.28224e+08   2.25673e+08    67606    1.12%
  18898 15577   2.25883e+08    27   2.28224e+08   2.25673e+08    67610    1.12%
  18899 15578   2.25883e+08    31   2.28224e+08   2.25673e+08    67620    1.12%
  18900 15579   2.25883e+08    32   2.28224e+08   2.25673e+08    67627    1.12%
  18901 15580   2.25883e+08    32   2.28224e+08   2.25673e+08    67628    1.12%
Elapsed time = 3.90 sec. (4887.22 ticks, tree = 9.67 MB, solutions = 19)
  24843 20769   2.25940e+08    27   2.28224e+08   2.25673e+08    85638    1.12%
  24844 20770   2.25940e+08    27   2.28224e+08   2.25673e+08    85641    1.12%
  24845 20771   2.25940e+08    29   2.28224e+08   2.25673e+08    85651    1.12%
  24846 20772   2.25940e+08    28   2.28224e+08   2.25673e+08    85652    1.12%
  24847 20773   2.25940e+08    28   2.28224e+08   2.25673e+08    85660    1.12%
  24848 20774   2.25940e+08    27   2.28224e+08   2.25673e+08    85664    1.12%
  24849 20775   2.25940e+08    28   2.28224e+08   2.25673e+08    85666    1.12%
  24850 20776   2.25940e+08    32   2.28224e+08   2.25673e+08    85671    1.12%
  24851 20777   2.25940e+08    30   2.28224e+08   2.25673e+08    85672    1.12%
  24852 20778   2.26625e+08    18   2.28224e+08   2.25673e+08    85687    1.12%
Elapsed time = 4.63 sec. (5842.78 ticks, tree = 13.27 MB, solutions = 19)
  30549 25682   2.25673e+08    16   2.28224e+08   2.25673e+08   106196    1.12%
  30550 25683   2.25673e+08    15   2.28224e+08   2.25673e+08   106197    1.12%
  30551 25684   2.25673e+08    15   2.28224e+08   2.25673e+08   106199    1.12%
  30552 25685   2.25673e+08    14   2.28224e+08   2.25673e+08   106202    1.12%
  30553 25686   2.25673e+08    14   2.28224e+08   2.25673e+08   106208    1.12%
  30554 25687   2.25673e+08    13   2.28224e+08   2.25673e+08   106214    1.12%
  30555 25688   2.25673e+08    13   2.28224e+08   2.25673e+08   106217    1.12%
  30556 25689   2.25673e+08    15   2.28224e+08   2.25673e+08   106222    1.12%
  30557 25690   2.25673e+08    14   2.28224e+08   2.25673e+08   106223    1.12%
  30558 25691   2.25673e+08    15   2.28224e+08   2.25673e+08   106225    1.12%
Elapsed time = 5.38 sec. (6798.06 ticks, tree = 16.18 MB, solutions = 19)
  35090 29700   2.25673e+08    19   2.28224e+08   2.25673e+08   131487    1.12%
  35091 29701   2.25673e+08    18   2.28224e+08   2.25673e+08   131488    1.12%
  35092 29702   2.25673e+08    22   2.28224e+08   2.25673e+08   131495    1.12%
  35093 29703   2.25673e+08    17   2.28224e+08   2.25673e+08   131500    1.12%
  35094 29704   2.25673e+08    18   2.28224e+08   2.25673e+08   131506    1.12%
  35095 29705   2.25673e+08    16   2.28224e+08   2.25673e+08   131509    1.12%
  35096 29706   2.25673e+08    20   2.28224e+08   2.25673e+08   131515    1.12%
  35097 29707   2.25673e+08    20   2.28224e+08   2.25673e+08   131517    1.12%
  35098 29708   2.25673e+08    20   2.28224e+08   2.25673e+08   131518    1.12%
  35099 29709   2.25673e+08    20   2.28224e+08   2.25673e+08   131519    1.12%
Elapsed time = 6.12 sec. (7753.49 ticks, tree = 18.61 MB, solutions = 19)
  40154 34190   2.25996e+08    30   2.28224e+08   2.25673e+08   153627    1.12%
  40155 34191   2.26000e+08    30   2.28224e+08   2.25673e+08   153628    1.12%
  40156 34192   2.26000e+08    31   2.28224e+08   2.25673e+08   153630    1.12%
  40157 34193   2.26001e+08    31   2.28224e+08   2.25673e+08   153631    1.12%
  40158 34194   2.26003e+08    31   2.28224e+08   2.25673e+08   153632    1.12%
  40159 34195   2.26007e+08    31   2.28224e+08   2.25673e+08   153634    1.12%
  40160 34196   2.26007e+08    31   2.28224e+08   2.25673e+08   153635    1.12%
  40161 34197   2.26014e+08    31   2.28224e+08   2.25673e+08   153636    1.12%
  40162 34198   2.26019e+08    31   2.28224e+08   2.25673e+08   153637    1.12%
  40163 34198   2.26055e+08    31   2.28224e+08   2.25673e+08   153638    1.12%
Elapsed time = 6.86 sec. (8708.25 ticks, tree = 22.22 MB, solutions = 19)
  44103 37547   2.25673e+08    17   2.28224e+08   2.25673e+08   179291    1.12%
  44104 37548   2.25673e+08    16   2.28224e+08   2.25673e+08   179326    1.12%
  44105 37549   2.25673e+08    15   2.28224e+08   2.25673e+08   179332    1.12%
  44106 37550   2.25673e+08    15   2.28224e+08   2.25673e+08   179341    1.12%
  44107 37551   2.25673e+08    15   2.28224e+08   2.25673e+08   179353    1.12%
  44108 37552   2.25673e+08    15   2.28224e+08   2.25673e+08   179358    1.12%
  44109 37553   2.25673e+08    15   2.28224e+08   2.25673e+08   179365    1.12%
  44110 37554   2.25673e+08    16   2.28224e+08   2.25673e+08   179368    1.12%
  44111 37555   2.25673e+08    17   2.28224e+08   2.25673e+08   179385    1.12%
  55788 47864   2.26542e+08    32   2.28224e+08   2.25673e+08   254604    1.12%
Elapsed time = 9.74 sec. (12523.00 ticks, tree = 30.53 MB, solutions = 19)
  70337 60830   2.25673e+08    15   2.28224e+08   2.25673e+08   337778    1.12%
  70338 60831   2.25673e+08    15   2.28224e+08   2.25673e+08   337779    1.12%
  70339 60832   2.25843e+08    31   2.28224e+08   2.25673e+08   337835    1.12%
  70340 60833   2.25843e+08    32   2.28224e+08   2.25673e+08   337849    1.12%
  70341 60834   2.25843e+08    32   2.28224e+08   2.25673e+08   337867    1.12%
  70342 60835   2.25843e+08    33   2.28224e+08   2.25673e+08   337871    1.12%
  70343 60836   2.25871e+08    33   2.28224e+08   2.25673e+08   337884    1.12%
  70344 60837   2.25873e+08    32   2.28224e+08   2.25673e+08   337892    1.12%
  70345 60838   2.25879e+08    40   2.28224e+08   2.25673e+08   337899    1.12%
  70346 60839   2.25880e+08    39   2.28224e+08   2.25673e+08   337900    1.12%
Elapsed time = 12.58 sec. (16340.92 ticks, tree = 38.58 MB, solutions = 19)
  83797 73285   2.25673e+08    22   2.28224e+08   2.25673e+08   424178    1.12%
  83798 73286   2.25673e+08    22   2.28224e+08   2.25673e+08   424181    1.12%
  83799 73287   2.25673e+08    21   2.28224e+08   2.25673e+08   424184    1.12%
  83800 73288   2.25673e+08    22   2.28224e+08   2.25673e+08   424204    1.12%
  83801 73289   2.25673e+08    22   2.28224e+08   2.25673e+08   424214    1.12%
  83802 73290   2.25673e+08    22   2.28224e+08   2.25673e+08   424227    1.12%
  83803 73291   2.25673e+08    21   2.28224e+08   2.25673e+08   424231    1.12%
  83804 73292   2.25673e+08    25   2.28224e+08   2.25673e+08   424235    1.12%
  83805 73293   2.25673e+08    23   2.28224e+08   2.25673e+08   424236    1.12%
  83806 73294   2.25673e+08    23   2.28224e+08   2.25673e+08   424238    1.12%
Elapsed time = 15.39 sec. (20162.04 ticks, tree = 48.23 MB, solutions = 19)
  94664 83038   2.26498e+08    29   2.28224e+08   2.25673e+08   515574    1.12%
  94665 83037        cutoff         2.28224e+08   2.25673e+08   515577    1.12%
  94666 83036        cutoff         2.28224e+08   2.25673e+08   515581    1.12%
  94667 83035        cutoff         2.28224e+08   2.25673e+08   515588    1.12%
  94668 83036   2.25673e+08    24   2.28224e+08   2.25673e+08   515641    1.12%
  94669 83037   2.25673e+08    18   2.28224e+08   2.25673e+08   515720    1.12%
  94670 83038   2.25673e+08    22   2.28224e+08   2.25673e+08   515759    1.12%
  94671 83039   2.25673e+08    22   2.28224e+08   2.25673e+08   515791    1.12%
  94672 83040   2.25673e+08    22   2.28224e+08   2.25673e+08   515825    1.12%
  94673 83041   2.25673e+08    21   2.28224e+08   2.25673e+08   515828    1.12%
Elapsed time = 18.14 sec. (23984.06 ticks, tree = 54.40 MB, solutions = 19)
 104737 91964   2.25673e+08    30   2.28224e+08   2.25673e+08   605929    1.12%
 104738 91965   2.25673e+08    29   2.28224e+08   2.25673e+08   605930    1.12%
 104739 91966   2.25673e+08    30   2.28224e+08   2.25673e+08   605942    1.12%
 104740 91967   2.25673e+08    28   2.28224e+08   2.25673e+08   605943    1.12%
 104741 91968   2.25673e+08    28   2.28224e+08   2.25673e+08   605946    1.12%
 104742 91969   2.25673e+08    27   2.28224e+08   2.25673e+08   605949    1.12%
 104743 91970   2.25673e+08    29   2.28224e+08   2.25673e+08   605960    1.12%
 104744 91971   2.25673e+08    28   2.28224e+08   2.25673e+08   605964    1.12%
 104745 91972   2.25673e+08    29   2.28224e+08   2.25673e+08   605970    1.12%
 104746 91973   2.25673e+08    30   2.28224e+08   2.25673e+08   605971    1.12%
Elapsed time = 20.89 sec. (27800.73 ticks, tree = 60.15 MB, solutions = 19)
 113233 99631   2.25686e+08    43   2.28224e+08   2.25673e+08   691391    1.12%
 113234 99632   2.25686e+08    43   2.28224e+08   2.25673e+08   691396    1.12%
 113235 99633   2.25686e+08    43   2.28224e+08   2.25673e+08   691399    1.12%
 113236 99634   2.25686e+08    43   2.28224e+08   2.25673e+08   691400    1.12%
 113237 99635   2.25687e+08    46   2.28224e+08   2.25673e+08   691418    1.12%
 113238 99636   2.25687e+08    44   2.28224e+08   2.25673e+08   691419    1.12%
 113239 99635        cutoff         2.28224e+08   2.25673e+08   691435    1.12%
 113240 99635   2.26814e+08    38   2.28224e+08   2.25673e+08   691497    1.12%
 113241 99635   2.27215e+08    35   2.28224e+08   2.25673e+08   691499    1.12%
 113242 99636   2.27242e+08    36   2.28224e+08   2.25673e+08   691502    1.12%
Elapsed time = 23.68 sec. (31620.29 ticks, tree = 64.97 MB, solutions = 19)
 121568 107105   2.25673e+08    30   2.28224e+08   2.25673e+08   774566    1.12%
 121569 107106   2.25673e+08    30   2.28224e+08   2.25673e+08   774567    1.12%
 121570 107107   2.25673e+08    30   2.28224e+08   2.25673e+08   774568    1.12%
 121571 107108   2.25673e+08    30   2.28224e+08   2.25673e+08   774575    1.12%
 121572 107109   2.25673e+08    27   2.28224e+08   2.25673e+08   774582    1.12%
 121573 107110   2.25673e+08    26   2.28224e+08   2.25673e+08   774590    1.12%
 121574 107111   2.25673e+08    25   2.28224e+08   2.25673e+08   774600    1.12%
 121575 107112   2.25673e+08    25   2.28224e+08   2.25673e+08   774602    1.12%
 121576 107113   2.25673e+08    25   2.28224e+08   2.25673e+08   774607    1.12%
 121577 107114   2.25673e+08    28   2.28224e+08   2.25673e+08   774613    1.12%
Elapsed time = 26.41 sec. (35438.05 ticks, tree = 69.62 MB, solutions = 19)
 129410 114325   2.25673e+08    27   2.28224e+08   2.25673e+08   854124    1.12%
 129411 114326   2.25673e+08    28   2.28224e+08   2.25673e+08   854126    1.12%
 129412 114327   2.25673e+08    26   2.28224e+08   2.25673e+08   854128    1.12%
 129413 114328   2.25673e+08    23   2.28224e+08   2.25673e+08   854130    1.12%
 129414 114329   2.25673e+08    24   2.28224e+08   2.25673e+08   854136    1.12%
 129415 114330   2.25673e+08    22   2.28224e+08   2.25673e+08   854138    1.12%
 129416 114331   2.25673e+08    22   2.28224e+08   2.25673e+08   854139    1.12%
 129417 114332   2.25673e+08    22   2.28224e+08   2.25673e+08   854176    1.12%
 129418 114333   2.25673e+08    22   2.28224e+08   2.25673e+08   854178    1.12%
 129419 114334   2.25673e+08    27   2.28224e+08   2.25673e+08   854206    1.12%
Elapsed time = 29.16 sec. (39257.47 ticks, tree = 74.16 MB, solutions = 19)
 137551 121704        cutoff         2.28224e+08   2.25673e+08   940360    1.12%
 137552 121705   2.25673e+08    27   2.28224e+08   2.25673e+08   940380    1.12%
 137553 121706   2.25673e+08    27   2.28224e+08   2.25673e+08   940385    1.12%
 137554 121707   2.25673e+08    29   2.28224e+08   2.25673e+08   940388    1.12%
 137555 121708   2.25673e+08    30   2.28224e+08   2.25673e+08   940390    1.12%
 137556 121709   2.25673e+08    31   2.28224e+08   2.25673e+08   940399    1.12%
 137557 121710   2.25673e+08    30   2.28224e+08   2.25673e+08   940403    1.12%
 137558 121711   2.25673e+08    29   2.28224e+08   2.25673e+08   940409    1.12%
 137559 121712   2.25673e+08    29   2.28224e+08   2.25673e+08   940418    1.12%
 137560 121713   2.25673e+08    27   2.28224e+08   2.25673e+08   940419    1.12%
Elapsed time = 31.91 sec. (43082.74 ticks, tree = 78.86 MB, solutions = 19)
 144458 127932   2.26270e+08    31   2.28224e+08   2.25673e+08  1023229    1.12%
 144459 127933   2.26747e+08    20   2.28224e+08   2.25673e+08  1023245    1.12%
 144460 127932        cutoff         2.28224e+08   2.25673e+08  1023300    1.12%
 144461 127931    infeasible         2.28224e+08   2.25673e+08  1023316    1.12%
 144462 127932   2.25673e+08    33   2.28224e+08   2.25673e+08  1023376    1.12%
 144463 127933   2.25673e+08    35   2.28224e+08   2.25673e+08  1023400    1.12%
 144464 127934   2.25673e+08    34   2.28224e+08   2.25673e+08  1023401    1.12%
 144465 127935   2.25673e+08    32   2.28224e+08   2.25673e+08  1023403    1.12%
 144466 127936   2.25673e+08    33   2.28224e+08   2.25673e+08  1023419    1.12%
 144467 127937   2.25673e+08    32   2.28224e+08   2.25673e+08  1023429    1.12%
Elapsed time = 34.61 sec. (46909.58 ticks, tree = 82.82 MB, solutions = 19)
*145199+127280                       2.28025e+08   2.25673e+08             1.03%
 152144 133674   2.25673e+08    26   2.28025e+08   2.25673e+08  1097917    1.03%
 152145 133675   2.25673e+08    25   2.28025e+08   2.25673e+08  1097928    1.03%
 152146 133676   2.25673e+08    24   2.28025e+08   2.25673e+08  1097932    1.03%
 152147 133677   2.25673e+08    25   2.28025e+08   2.25673e+08  1097937    1.03%
 152148 133678   2.25673e+08    24   2.28025e+08   2.25673e+08  1097972    1.03%
 152149 133679   2.25673e+08    26   2.28025e+08   2.25673e+08  1097996    1.03%
 152150 133680   2.25673e+08    26   2.28025e+08   2.25673e+08  1097997    1.03%
 152151 133681   2.25673e+08    23   2.28025e+08   2.25673e+08  1098005    1.03%
 152152 133682   2.25673e+08    23   2.28025e+08   2.25673e+08  1098011    1.03%
 152153 133683   2.25673e+08    25   2.28025e+08   2.25673e+08  1098017    1.03%
Elapsed time = 38.02 sec. (50728.31 ticks, tree = 88.11 MB, solutions = 20)
 158696 139549   2.25673e+08    21   2.28025e+08   2.25673e+08  1176772    1.03%
 158697 139550   2.25673e+08    17   2.28025e+08   2.25673e+08  1176783    1.03%
 158698 139551   2.25673e+08    17   2.28025e+08   2.25673e+08  1176786    1.03%
 158699 139552   2.25673e+08    19   2.28025e+08   2.25673e+08  1176795    1.03%
 158700 139553   2.25673e+08    19   2.28025e+08   2.25673e+08  1176796    1.03%
 158701 139554   2.25673e+08    18   2.28025e+08   2.25673e+08  1176811    1.03%
 158702 139555   2.25673e+08    18   2.28025e+08   2.25673e+08  1176813    1.03%
 158703 139556   2.25918e+08    28   2.28025e+08   2.25673e+08  1176831    1.03%
 158704 139557   2.25918e+08    26   2.28025e+08   2.25673e+08  1176845    1.03%
 158705 139558   2.26097e+08    23   2.28025e+08   2.25673e+08  1176853    1.03%
Elapsed time = 41.49 sec. (54546.75 ticks, tree = 91.91 MB, solutions = 20)
 165918 145707   2.25673e+08    31   2.28025e+08   2.25673e+08  1253840    1.03%
 165919 145708   2.25673e+08    31   2.28025e+08   2.25673e+08  1253843    1.03%
 165920 145709   2.25673e+08    27   2.28025e+08   2.25673e+08  1253850    1.03%
 165921 145710   2.25673e+08    31   2.28025e+08   2.25673e+08  1253853    1.03%
 165922 145711   2.25673e+08    30   2.28025e+08   2.25673e+08  1253854    1.03%
 165923 145712   2.25673e+08    30   2.28025e+08   2.25673e+08  1253862    1.03%
 165924 145713   2.25673e+08    32   2.28025e+08   2.25673e+08  1253866    1.03%
 165925 145714   2.25673e+08    32   2.28025e+08   2.25673e+08  1253868    1.03%
 165926 145715   2.25673e+08    32   2.28025e+08   2.25673e+08  1253870    1.03%
 165927 145716   2.25673e+08    30   2.28025e+08   2.25673e+08  1253874    1.03%
Elapsed time = 45.03 sec. (58364.62 ticks, tree = 95.91 MB, solutions = 20)
*173299+148454                       2.27815e+08   2.25673e+08             0.94%
*173399+147333                       2.27672e+08   2.25673e+08             0.88%
 173490 147400   2.26436e+08    33   2.27672e+08   2.25673e+08  1332261    0.88%
 173491 147399        cutoff         2.27672e+08   2.25673e+08  1332272    0.88%
 173492 147398        cutoff         2.27672e+08   2.25673e+08  1332348    0.88%
 173493 147397        cutoff         2.27672e+08   2.25673e+08  1332388    0.88%
 173494 147398   2.25673e+08    24   2.27672e+08   2.25673e+08  1332447    0.88%
 173495 147399   2.25673e+08    22   2.27672e+08   2.25673e+08  1332468    0.88%
 173496 147398        cutoff         2.27672e+08   2.25673e+08  1332470    0.88%
 173497 147399   2.25673e+08    23   2.27672e+08   2.25673e+08  1332491    0.88%
 173498 147400   2.25673e+08    23   2.27672e+08   2.25673e+08  1332498    0.88%
 173499 147401   2.25673e+08    22   2.27672e+08   2.25673e+08  1332508    0.88%
Elapsed time = 48.81 sec. (62204.49 ticks, tree = 97.03 MB, solutions = 22)
 181288 154470   2.25673e+08    26   2.27672e+08   2.25673e+08  1407021    0.88%
 181289 154471   2.25673e+08    25   2.27672e+08   2.25673e+08  1407032    0.88%
 181290 154471   2.25673e+08    35   2.27672e+08   2.25673e+08  1407108    0.88%
 181291 154471   2.25673e+08    33   2.27672e+08   2.25673e+08  1407116    0.88%
 181292 154472   2.25673e+08    29   2.27672e+08   2.25673e+08  1407118    0.88%
 181293 154473   2.25673e+08    27   2.27672e+08   2.25673e+08  1407119    0.88%
 181294 154474   2.25673e+08    24   2.27672e+08   2.25673e+08  1407123    0.88%
 181295 154475   2.25673e+08    23   2.27672e+08   2.25673e+08  1407133    0.88%
 181296 154476   2.25673e+08    21   2.27672e+08   2.25673e+08  1407134    0.88%
 181297 154477   2.25673e+08    21   2.27672e+08   2.25673e+08  1407140    0.88%
Elapsed time = 52.25 sec. (66024.62 ticks, tree = 101.60 MB, solutions = 22)
 189134 161624   2.25673e+08    21   2.27672e+08   2.25673e+08  1485513    0.88%
 189135 161625   2.25673e+08    22   2.27672e+08   2.25673e+08  1485519    0.88%
 189136 161626   2.25673e+08    24   2.27672e+08   2.25673e+08  1485530    0.88%
 189137 161627   2.25673e+08    24   2.27672e+08   2.25673e+08  1485531    0.88%
 189138 161628   2.25673e+08    26   2.27672e+08   2.25673e+08  1485536    0.88%
 189139 161629   2.25673e+08    22   2.27672e+08   2.25673e+08  1485537    0.88%
 189140 161630   2.25673e+08    26   2.27672e+08   2.25673e+08  1485540    0.88%
 189141 161631   2.25673e+08    22   2.27672e+08   2.25673e+08  1485560    0.88%
 189142 161632   2.25673e+08    24   2.27672e+08   2.25673e+08  1485561    0.88%
 189143 161633   2.25673e+08    23   2.27672e+08   2.25673e+08  1485564    0.88%
Elapsed time = 55.68 sec. (69842.32 ticks, tree = 107.32 MB, solutions = 22)
 197813 169799   2.25673e+08    21   2.27672e+08   2.25673e+08  1563871    0.88%
 197814 169800   2.25673e+08    22   2.27672e+08   2.25673e+08  1563872    0.88%
 197815 169801   2.25673e+08    21   2.27672e+08   2.25673e+08  1563873    0.88%
 197816 169802   2.25673e+08    21   2.27672e+08   2.25673e+08  1563874    0.88%
 197817 169803   2.25673e+08    22   2.27672e+08   2.25673e+08  1563885    0.88%
 197818 169804   2.25673e+08    25   2.27672e+08   2.25673e+08  1563899    0.88%
 197819 169805   2.25673e+08    24   2.27672e+08   2.25673e+08  1563904    0.88%
 197820 169806   2.25673e+08    36   2.27672e+08   2.25673e+08  1563954    0.88%
 197821 169807   2.25673e+08    23   2.27672e+08   2.25673e+08  1563969    0.88%
 197822 169808   2.25673e+08    22   2.27672e+08   2.25673e+08  1563970    0.88%
Elapsed time = 59.08 sec. (73660.80 ticks, tree = 112.55 MB, solutions = 22)
 204817 176159   2.25673e+08    29   2.27672e+08   2.25673e+08  1644246    0.88%
 204818 176160   2.25673e+08    28   2.27672e+08   2.25673e+08  1644250    0.88%
 204819 176161   2.25673e+08    28   2.27672e+08   2.25673e+08  1644251    0.88%
 204820 176162   2.25673e+08    30   2.27672e+08   2.25673e+08  1644279    0.88%
 204821 176163   2.25673e+08    25   2.27672e+08   2.25673e+08  1644289    0.88%
 204822 176164   2.25673e+08    36   2.27672e+08   2.25673e+08  1644383    0.88%
 204823 176165   2.25673e+08    43   2.27672e+08   2.25673e+08  1644389    0.88%
 204824 176166   2.25673e+08    42   2.27672e+08   2.25673e+08  1644390    0.88%
 204825 176167   2.25673e+08    35   2.27672e+08   2.25673e+08  1644391    0.88%
 204826 176168   2.25673e+08    36   2.27672e+08   2.25673e+08  1644393    0.88%
Elapsed time = 62.54 sec. (77481.22 ticks, tree = 116.70 MB, solutions = 22)
*208018 177338      integral     0   2.27543e+08   2.25673e+08  1681431    0.82%
*210999+179814                       2.27519e+08   2.25673e+08             0.81%
*211099+178507                       2.27376e+08   2.25673e+08             0.75%
*211299+178317                       2.27360e+08   2.25673e+08             0.74%
 211450 178460   2.25766e+08    42   2.27360e+08   2.25673e+08  1715697    0.74%
 211451 178461   2.25955e+08    28   2.27360e+08   2.25673e+08  1715757    0.74%
 211452 178462   2.25955e+08    27   2.27360e+08   2.25673e+08  1715759    0.74%
 211453 178463   2.25955e+08    28   2.27360e+08   2.25673e+08  1715760    0.74%
 211454 178464   2.26040e+08    25   2.27360e+08   2.25673e+08  1715763    0.74%
 211455 178465   2.26040e+08    25   2.27360e+08   2.25673e+08  1715764    0.74%
 211456 178466   2.26040e+08    24   2.27360e+08   2.25673e+08  1715765    0.74%
 211457 178467   2.26471e+08    23   2.27360e+08   2.25673e+08  1715779    0.74%
 211458 178467   2.26471e+08    22   2.27360e+08   2.25673e+08  1715780    0.74%
 211459 178467   2.26471e+08    22   2.27360e+08   2.25673e+08  1715781    0.74%
Elapsed time = 65.96 sec. (81301.19 ticks, tree = 117.98 MB, solutions = 26)
 219534 185845   2.25673e+08    25   2.27360e+08   2.25673e+08  1794892    0.74%
 219535 185846   2.25673e+08    25   2.27360e+08   2.25673e+08  1794895    0.74%
 219536 185847   2.25673e+08    26   2.27360e+08   2.25673e+08  1794896    0.74%
 219537 185848   2.25673e+08    28   2.27360e+08   2.25673e+08  1794900    0.74%
 219538 185849   2.25673e+08    26   2.27360e+08   2.25673e+08  1794902    0.74%
 219539 185850   2.25673e+08    27   2.27360e+08   2.25673e+08  1794903    0.74%
 219540 185851   2.25673e+08    26   2.27360e+08   2.25673e+08  1794906    0.74%
 219541 185852   2.25673e+08    26   2.27360e+08   2.25673e+08  1794907    0.74%
 219542 185853   2.25673e+08    24   2.27360e+08   2.25673e+08  1794909    0.74%
 219543 185854   2.25673e+08    22   2.27360e+08   2.25673e+08  1794912    0.74%
Elapsed time = 69.40 sec. (85121.84 ticks, tree = 122.69 MB, solutions = 26)
 228578 194013   2.25673e+08    35   2.27360e+08   2.25673e+08  1865150    0.74%
 228579 194014   2.25673e+08    33   2.27360e+08   2.25673e+08  1865151    0.74%
 228580 194015   2.25673e+08    33   2.27360e+08   2.25673e+08  1865154    0.74%
 228581 194016   2.25674e+08    31   2.27360e+08   2.25673e+08  1865166    0.74%
 228582 194017   2.25675e+08    31   2.27360e+08   2.25673e+08  1865180    0.74%
 228583 194018   2.25676e+08    31   2.27360e+08   2.25673e+08  1865181    0.74%
 228584 194019   2.25676e+08    32   2.27360e+08   2.25673e+08  1865185    0.74%
 228585 194020   2.25676e+08    31   2.27360e+08   2.25673e+08  1865186    0.74%
 228586 194021   2.25676e+08    31   2.27360e+08   2.25673e+08  1865189    0.74%
 228587 194022   2.25676e+08    31   2.27360e+08   2.25673e+08  1865192    0.74%
Elapsed time = 72.74 sec. (88941.06 ticks, tree = 129.36 MB, solutions = 26)
 235686 200242   2.26264e+08    28   2.27360e+08   2.25673e+08  1948198    0.74%
 235687 200243   2.26264e+08    29   2.27360e+08   2.25673e+08  1948205    0.74%
 235688 200244   2.26264e+08    30   2.27360e+08   2.25673e+08  1948207    0.74%
 235689 200245   2.26264e+08    28   2.27360e+08   2.25673e+08  1948208    0.74%
 235690 200246   2.27036e+08    22   2.27360e+08   2.25673e+08  1948238    0.74%
 235691 200245    infeasible         2.27360e+08   2.25673e+08  1948256    0.74%
 235692 200244        cutoff         2.27360e+08   2.25673e+08  1948264    0.74%
 235693 200243        cutoff         2.27360e+08   2.25673e+08  1948348    0.74%
 235694 200244   2.25674e+08    43   2.27360e+08   2.25673e+08  1948549    0.74%
 235695 200245   2.25674e+08    44   2.27360e+08   2.25673e+08  1948554    0.74%
Elapsed time = 76.22 sec. (92770.11 ticks, tree = 133.49 MB, solutions = 26)
 243714 207621   2.25678e+08    36   2.27360e+08   2.25673e+08  2030750    0.74%
 243715 207622   2.25678e+08    37   2.27360e+08   2.25673e+08  2030763    0.74%
 243716 207623   2.25678e+08    40   2.27360e+08   2.25673e+08  2030785    0.74%
 243717 207624   2.25679e+08    35   2.27360e+08   2.25673e+08  2030808    0.74%
 243718 207625   2.25680e+08    37   2.27360e+08   2.25673e+08  2030819    0.74%
 243719 207626   2.25680e+08    38   2.27360e+08   2.25673e+08  2030820    0.74%
 243720 207627   2.25680e+08    38   2.27360e+08   2.25673e+08  2030825    0.74%
 243721 207628   2.25680e+08    36   2.27360e+08   2.25673e+08  2030827    0.74%
 243722 207629   2.25680e+08    36   2.27360e+08   2.25673e+08  2030828    0.74%
 243723 207630   2.25680e+08    36   2.27360e+08   2.25673e+08  2030829    0.74%
Elapsed time = 79.68 sec. (96589.07 ticks, tree = 138.17 MB, solutions = 26)
 249885 212704   2.25673e+08    21   2.27360e+08   2.25673e+08  2111311    0.74%
 249886 212705   2.25673e+08    21   2.27360e+08   2.25673e+08  2111314    0.74%
 249887 212706   2.25673e+08    20   2.27360e+08   2.25673e+08  2111318    0.74%
 249888 212707   2.25673e+08    20   2.27360e+08   2.25673e+08  2111321    0.74%
 249889 212708   2.25673e+08    21   2.27360e+08   2.25673e+08  2111330    0.74%
 249890 212709   2.25673e+08    21   2.27360e+08   2.25673e+08  2111331    0.74%
 249891 212710   2.25673e+08    23   2.27360e+08   2.25673e+08  2111347    0.74%
 249892 212711   2.25673e+08    26   2.27360e+08   2.25673e+08  2111355    0.74%
 249893 212712   2.25673e+08    25   2.27360e+08   2.25673e+08  2111373    0.74%
 249894 212713   2.25673e+08    26   2.27360e+08   2.25673e+08  2111398    0.74%
Elapsed time = 83.18 sec. (100407.07 ticks, tree = 141.45 MB, solutions = 26)
 258037 220122   2.26686e+08    19   2.27360e+08   2.25673e+08  2195725    0.74%
 258038 220123   2.26686e+08    19   2.27360e+08   2.25673e+08  2195726    0.74%
 258039 220124   2.26686e+08    19   2.27360e+08   2.25673e+08  2195727    0.74%
 258040 220124   2.26686e+08    19   2.27360e+08   2.25673e+08  2195728    0.74%
 258041 220123   2.26686e+08    19   2.27360e+08   2.25673e+08  2195729    0.74%
 258042 220122    infeasible         2.27360e+08   2.25673e+08  2195729    0.74%
 258043 220121    infeasible         2.27360e+08   2.25673e+08  2195729    0.74%
 258044 220120        cutoff         2.27360e+08   2.25673e+08  2195735    0.74%
 258045 220119        cutoff         2.27360e+08   2.25673e+08  2195760    0.74%
 258046 220120   2.25673e+08    27   2.27360e+08   2.25673e+08  2195781    0.74%
Elapsed time = 86.62 sec. (104226.01 ticks, tree = 146.24 MB, solutions = 26)
 267200 228670   2.25673e+08    24   2.27360e+08   2.25673e+08  2265773    0.74%
 267201 228671   2.25673e+08    24   2.27360e+08   2.25673e+08  2265779    0.74%
 267202 228672   2.25673e+08    24   2.27360e+08   2.25673e+08  2265780    0.74%
 267203 228673   2.25673e+08    24   2.27360e+08   2.25673e+08  2265787    0.74%
 267204 228674   2.25673e+08    24   2.27360e+08   2.25673e+08  2265810    0.74%
 267205 228675   2.25673e+08    22   2.27360e+08   2.25673e+08  2265815    0.74%
 267206 228676   2.25673e+08    22   2.27360e+08   2.25673e+08  2265819    0.74%
 267207 228677   2.25673e+08    22   2.27360e+08   2.25673e+08  2265824    0.74%
 267208 228678   2.25673e+08    24   2.27360e+08   2.25673e+08  2265828    0.74%
 267209 228679   2.25673e+08    25   2.27360e+08   2.25673e+08  2265830    0.74%
Elapsed time = 89.99 sec. (108043.53 ticks, tree = 153.32 MB, solutions = 26)
*268099+227512                       2.27325e+08   2.25673e+08             0.73%
 270399 229694   2.25673e+08    25   2.27325e+08   2.25673e+08  2298043    0.73%
 270400 229695   2.25673e+08    25   2.27325e+08   2.25673e+08  2298044    0.73%
 270401 229696   2.25673e+08    25   2.27325e+08   2.25673e+08  2298045    0.73%
 270402 229697   2.25673e+08    25   2.27325e+08   2.25673e+08  2298046    0.73%
 270403 229698   2.25673e+08    24   2.27325e+08   2.25673e+08  2298047    0.73%
 270404 229699   2.25673e+08    29   2.27325e+08   2.25673e+08  2298068    0.73%
 270405 229700   2.25673e+08    27   2.27325e+08   2.25673e+08  2298069    0.73%
 270406 229701   2.25673e+08    28   2.27325e+08   2.25673e+08  2298074    0.73%
 270407 229702   2.25673e+08    27   2.27325e+08   2.25673e+08  2298076    0.73%
 270408 229703   2.25673e+08    30   2.27325e+08   2.25673e+08  2298085    0.73%
Elapsed time = 93.28 sec. (112049.28 ticks, tree = 153.98 MB, solutions = 27)
 276720 235380   2.25673e+08    32   2.27325e+08   2.25673e+08  2368436    0.73%
 276721 235381   2.25673e+08    32   2.27325e+08   2.25673e+08  2368440    0.73%
 276722 235382   2.25673e+08    30   2.27325e+08   2.25673e+08  2368443    0.73%
 276723 235383   2.25673e+08    26   2.27325e+08   2.25673e+08  2368451    0.73%
 276724 235384   2.25673e+08    31   2.27325e+08   2.25673e+08  2368475    0.73%
 276725 235385   2.25673e+08    35   2.27325e+08   2.25673e+08  2368503    0.73%
 276726 235386   2.25673e+08    32   2.27325e+08   2.25673e+08  2368563    0.73%
 276727 235387   2.25673e+08    41   2.27325e+08   2.25673e+08  2368657    0.73%
 276728 235386    infeasible         2.27325e+08   2.25673e+08  2368726    0.73%
 276729 235387   2.25673e+08    40   2.27325e+08   2.25673e+08  2368727    0.73%
Elapsed time = 96.74 sec. (115874.19 ticks, tree = 157.67 MB, solutions = 27)

GUB cover cuts applied:  1
Cover cuts applied:  462
Mixed integer rounding cuts applied:  7
Zero-half cuts applied:  2
Gomory fractional cuts applied:  3

Root node processing (before b&c):
  Real time             =    0.06 sec. (66.07 ticks)
Sequential b&c:
  Real time             =   99.94 sec. (119358.11 ticks)
                          ------------
Total (root+branch&cut) =  100.00 sec. (119424.18 ticks)

Solution pool: 27 solutions saved.

MIP - Time limit exceeded, integer feasible:  Objective =  2.2732516400e+08
Current MIP best bound =  2.2567326400e+08 (gap = 1.6519e+06, 0.73%)
Solution time =  100.00 sec.  Iterations = 2444357  Nodes = 283733 (241528)
Deterministic time = 119424.18 ticks  (1194.24 ticks/sec)


Incumbent solution written to file '/tmp/tmpScr0Fd.cplex.sol'.
